NAME: my_tsp30
COMMENT: Randomly generated TSP instance with 30 nodes.
TYPE: TSP
DIMENSION: 30
EDGE_WEIGHT_TYPE: EUC_2D
NODE_COORD_SECTION
1 982 730
2 454 557
3 250 763
4 643 507
5 788 957
6 259 495
7 788 700
8 342 991
9 721 109
10 365 126
11 301 139
12 95 489
13 293 188
14 743 710
15 621 272
16 362 82
17 267 926
18 762 759
19 249 910
20 831 412
21 268 863
22 125 876
23 651 987
24 459 296
25 845 831
26 592 245
27 395 614
28 258 900
29 363 97
30 800 569
EOF
